! wB97M-V RIJCOSX NoUseSym DIIS NOSOSCF NormalConv DEFGRID2 OPT
%scf
  MaxIter 1000
  Convergence Tight
end
%pal
  nprocs 6
end

%basis
  NewGTO O "def2-TZVPD" end
  NewGTO Am "ma-def-TZVP" end
  NewECP Am "def-ECP" end
end

* xyz 0 8
Am	0.000000	0.000000	0.000000
O	0.000000	0.000000	1.858970
*
