# Minimal ORCA validation input for Fir.
# Purpose: confirm the orca/6.1.0 module chain loads and ORCA spawns its own
# MPI across 4 ranks (NOT srun/mpirun). Water B3LYP/def2-SVP single point
# finishes in seconds. %pal nprocs MUST equal #SBATCH --ntasks in the job script.
! B3LYP def2-SVP TightSCF
%pal nprocs 4 end
%maxcore 3000
* xyz 0 1
O   0.00000   0.00000   0.00000
H   0.00000   0.00000   0.95720
H   0.92660   0.00000  -0.24010
*
