! wB97M-V RIJCOSX NoUseSym DIIS NOSOSCF NormalConv DEFGRID3 OPT
%scf
  MaxIter 1000
  Convergence Tight
end
%pal
  nprocs 6
end

%basis
  NewGTO H "def2-TZVP" end
  NewGTO O "def2-TZVP" end
end

* xyz 0 1
O   0.0000   0.0000   0.0626
H  -0.7920   0.0000  -0.4973
H   0.7920   0.0000  -0.4973
*
